c read Graph
c width = 8
c time = 13 ms
c width = 1
c time = 26 ms
c width = 1
c time = 4924 ms
s td 291 2 369
b 1 1
b 2 2 88
b 3 2 186
b 4 298 299
b 5 2 299
b 6 3
b 7 4 271
b 8 5 116
b 9 120 121
b 10 6 120
b 11 7 129
b 12 8
b 13 9 265
b 14 10 253
b 15 11 123
b 16 13 355
b 17 354 355
b 18 12 354
b 19 314 315
b 20 12 314
b 21 14 117
b 22 15 312
b 23 16 206
b 24 16 94
b 25 17 168
b 26 17 255
b 27 18 119
b 28 19
b 29 20 311
b 30 21 162
b 31 22 163
b 32 22 338
b 33 23 365
b 34 24
b 35 25 115
b 36 26 102
b 37 356 357
b 38 27 357
b 39 28 223
b 40 28 104
b 41 316 317
b 42 29 316
b 43 200 201
b 44 30 201
b 45 30 274
b 46 30 267
b 47 31 196
b 48 31 261
b 49 248 249
b 50 32 248
b 51 130 131
b 52 32 131
b 53 33 251
b 54 34 325
b 55 35
b 56 36 155
b 57 37 237
b 58 38 174
b 59 38 133
b 60 39 290
b 61 40
b 62 41 345
b 63 194 195
b 64 42 195
b 65 42 85
b 66 43 362
b 67 44 363
b 68 45 332
b 69 244 245
b 70 45 245
b 71 46
b 72 56 326
b 73 56 287
b 74 286 287
b 75 47 286
b 76 47 269
b 77 204 205
b 78 47 205
b 79 47 148
b 80 48 246
b 81 142 143
b 82 49 143
b 83 50 134
b 84 156 157
b 85 50 157
b 86 296 297
b 87 51 296
b 88 52 227
b 89 52 86
b 90 53 259
b 91 53 243
b 92 54 333
b 93 55 300
b 94 55 144
b 95 57
b 96 58 219
b 97 67 321
b 98 320 321
b 99 58 320
b 100 59 229
b 101 69 91
b 102 136 137
b 103 69 136
b 104 69 111
b 105 110 111
b 106 60 110
b 107 70 348
b 108 70 147
b 109 146 147
b 110 61 146
b 111 62 346
b 112 63 347
b 113 63 350
b 114 64
b 115 202 203
b 116 65 203
b 117 66 234
b 118 66 159
b 119 66 93
b 120 68 112
b 121 71 182
b 122 71 208
b 123 72 184
b 124 73
b 125 74 153
b 126 75 126
b 127 75 279
b 128 75 303
b 129 76 292
b 130 76 127
b 131 77
b 132 176 177
b 133 78 177
b 134 78 178
b 135 79 140
b 136 352 353
b 137 79 353
b 138 79 179
b 139 80 183
b 140 166 167
b 141 80 166
b 142 81
b 143 82
b 144 83
b 145 84
b 146 87
b 147 89
b 148 90
b 149 92
b 150 95
b 151 96
b 152 97
b 153 98
b 154 99
b 155 100 101
b 156 103
b 157 105
b 158 106 107
b 159 108 109
b 160 113
b 161 114
b 162 118
b 163 122
b 164 124 125
b 165 128
b 166 132
b 167 135
b 168 138
b 169 139
b 170 141
b 171 145
b 172 149
b 173 150
b 174 151
b 175 152
b 176 154
b 177 158
b 178 160 161
b 179 164
b 180 165
b 181 169
b 182 170
b 183 171
b 184 172 173
b 185 175
b 186 180
b 187 181
b 188 185
b 189 187
b 190 188
b 191 189
b 192 190
b 193 191
b 194 192
b 195 193
b 196 197
b 197 198 199
b 198 207
b 199 209
b 200 210
b 201 211
b 202 212
b 203 213
b 204 214
b 205 215
b 206 216
b 207 217
b 208 218
b 209 220
b 210 221
b 211 222
b 212 224
b 213 225
b 214 226
b 215 228
b 216 230
b 217 231
b 218 232
b 219 233
b 220 235
b 221 236
b 222 238 239
b 223 240
b 224 241
b 225 242
b 226 247
b 227 250
b 228 252
b 229 254
b 230 256
b 231 257
b 232 258
b 233 260
b 234 262 263
b 235 264
b 236 266
b 237 268
b 238 270
b 239 272
b 240 273
b 241 275
b 242 276
b 243 277
b 244 278
b 245 280
b 246 281
b 247 282
b 248 283
b 249 284
b 250 285
b 251 288 289
b 252 291
b 253 293
b 254 294
b 255 295
b 256 301
b 257 302
b 258 304
b 259 305
b 260 306
b 261 307
b 262 308
b 263 309
b 264 310
b 265 313
b 266 318 319
b 267 322
b 268 323
b 269 324
b 270 327
b 271 328 329
b 272 330
b 273 331
b 274 334
b 275 335
b 276 336
b 277 337
b 278 339
b 279 340
b 280 341
b 281 342 343
b 282 344
b 283 349
b 284 351
b 285 358
b 286 359
b 287 360 361
b 288 364
b 289 366
b 290 367
b 291 368 369
1 2
1 6
1 7
1 8
1 9
1 11
1 12
1 13
1 14
1 15
1 16
1 21
1 22
1 23
1 25
1 27
1 28
1 29
1 30
1 31
1 33
1 34
1 35
1 36
1 37
1 39
1 41
1 43
1 47
1 49
1 53
1 54
1 55
1 56
1 57
1 58
1 60
1 61
1 62
1 63
1 66
1 67
1 68
1 71
1 72
1 80
1 81
1 83
1 86
1 88
1 90
1 92
1 93
1 95
1 96
1 100
1 101
1 107
1 111
1 112
1 114
1 115
1 117
1 120
1 121
1 123
1 124
1 125
1 126
1 129
1 131
1 132
1 135
1 139
1 142
1 143
1 144
1 145
1 146
1 147
1 148
1 149
1 150
1 151
1 152
1 153
1 154
1 155
1 156
1 157
1 158
1 159
1 160
1 161
1 162
1 163
1 164
1 165
1 166
1 167
1 168
1 169
1 170
1 171
1 172
1 173
1 174
1 175
1 176
1 177
1 178
1 179
1 180
1 181
1 182
1 183
1 184
1 185
1 186
1 187
1 188
1 189
1 190
1 191
1 192
1 193
1 194
1 195
1 196
1 197
1 198
1 199
1 200
1 201
1 202
1 203
1 204
1 205
1 206
1 207
1 208
1 209
1 210
1 211
1 212
1 213
1 214
1 215
1 216
1 217
1 218
1 219
1 220
1 221
1 222
1 223
1 224
1 225
1 226
1 227
1 228
1 229
1 230
1 231
1 232
1 233
1 234
1 235
1 236
1 237
1 238
1 239
1 240
1 241
1 242
1 243
1 244
1 245
1 246
1 247
1 248
1 249
1 250
1 251
1 252
1 253
1 254
1 255
1 256
1 257
1 258
1 259
1 260
1 261
1 262
1 263
1 264
1 265
1 266
1 267
1 268
1 269
1 270
1 271
1 272
1 273
1 274
1 275
1 276
1 277
1 278
1 279
1 280
1 281
1 282
1 283
1 284
1 285
1 286
1 287
1 288
1 289
1 290
1 291
2 3
2 5
4 5
9 10
16 17
17 18
18 20
19 20
23 24
25 26
31 32
37 38
39 40
41 42
43 44
44 45
44 46
47 48
49 50
50 52
51 52
58 59
63 64
64 65
68 70
69 70
72 73
73 74
74 75
75 76
75 78
75 79
77 78
81 82
83 85
84 85
86 87
88 89
90 91
93 94
96 99
97 98
98 99
101 103
101 104
102 103
104 105
105 106
107 108
108 109
109 110
112 113
115 116
117 118
117 119
121 122
126 127
126 128
129 130
132 133
133 134
135 137
135 138
136 137
139 141
140 141
